c *********************************
c * Circuit generated by BenCGen
c *
c * CarrySaveAdder_32_32_32_32_33
c *
c * Ports with 1 gate(s): 2
c * Ports with 2 gate(s): 161
c * Total gates: 163
c *********************************
p cnf 259 551
1 163 0
-1 -163 0
1 -162 0
163 -162 0
-1 -163 162 0
162 -129 0
-162 129 0
1 33 -164 0
-1 33 164 0
1 -33 164 0
-1 -33 -164 0
164 65 -97 0
-164 65 97 0
164 -65 97 0
-164 -65 -97 0
65 -165 0
164 -165 0
-65 -164 165 0
33 -166 0
1 -166 0
-33 -1 166 0
-165 130 0
-166 130 0
165 166 -130 0
2 34 -167 0
-2 34 167 0
2 -34 167 0
-2 -34 -167 0
167 66 -98 0
-167 66 98 0
167 -66 98 0
-167 -66 -98 0
66 -168 0
167 -168 0
-66 -167 168 0
34 -169 0
2 -169 0
-34 -2 169 0
-168 131 0
-169 131 0
168 169 -131 0
3 35 -170 0
-3 35 170 0
3 -35 170 0
-3 -35 -170 0
170 67 -99 0
-170 67 99 0
170 -67 99 0
-170 -67 -99 0
67 -171 0
170 -171 0
-67 -170 171 0
35 -172 0
3 -172 0
-35 -3 172 0
-171 132 0
-172 132 0
171 172 -132 0
4 36 -173 0
-4 36 173 0
4 -36 173 0
-4 -36 -173 0
173 68 -100 0
-173 68 100 0
173 -68 100 0
-173 -68 -100 0
68 -174 0
173 -174 0
-68 -173 174 0
36 -175 0
4 -175 0
-36 -4 175 0
-174 133 0
-175 133 0
174 175 -133 0
5 37 -176 0
-5 37 176 0
5 -37 176 0
-5 -37 -176 0
176 69 -101 0
-176 69 101 0
176 -69 101 0
-176 -69 -101 0
69 -177 0
176 -177 0
-69 -176 177 0
37 -178 0
5 -178 0
-37 -5 178 0
-177 134 0
-178 134 0
177 178 -134 0
6 38 -179 0
-6 38 179 0
6 -38 179 0
-6 -38 -179 0
179 70 -102 0
-179 70 102 0
179 -70 102 0
-179 -70 -102 0
70 -180 0
179 -180 0
-70 -179 180 0
38 -181 0
6 -181 0
-38 -6 181 0
-180 135 0
-181 135 0
180 181 -135 0
7 39 -182 0
-7 39 182 0
7 -39 182 0
-7 -39 -182 0
182 71 -103 0
-182 71 103 0
182 -71 103 0
-182 -71 -103 0
71 -183 0
182 -183 0
-71 -182 183 0
39 -184 0
7 -184 0
-39 -7 184 0
-183 136 0
-184 136 0
183 184 -136 0
8 40 -185 0
-8 40 185 0
8 -40 185 0
-8 -40 -185 0
185 72 -104 0
-185 72 104 0
185 -72 104 0
-185 -72 -104 0
72 -186 0
185 -186 0
-72 -185 186 0
40 -187 0
8 -187 0
-40 -8 187 0
-186 137 0
-187 137 0
186 187 -137 0
9 41 -188 0
-9 41 188 0
9 -41 188 0
-9 -41 -188 0
188 73 -105 0
-188 73 105 0
188 -73 105 0
-188 -73 -105 0
73 -189 0
188 -189 0
-73 -188 189 0
41 -190 0
9 -190 0
-41 -9 190 0
-189 138 0
-190 138 0
189 190 -138 0
10 42 -191 0
-10 42 191 0
10 -42 191 0
-10 -42 -191 0
191 74 -106 0
-191 74 106 0
191 -74 106 0
-191 -74 -106 0
74 -192 0
191 -192 0
-74 -191 192 0
42 -193 0
10 -193 0
-42 -10 193 0
-192 139 0
-193 139 0
192 193 -139 0
11 43 -194 0
-11 43 194 0
11 -43 194 0
-11 -43 -194 0
194 75 -107 0
-194 75 107 0
194 -75 107 0
-194 -75 -107 0
75 -195 0
194 -195 0
-75 -194 195 0
43 -196 0
11 -196 0
-43 -11 196 0
-195 140 0
-196 140 0
195 196 -140 0
12 44 -197 0
-12 44 197 0
12 -44 197 0
-12 -44 -197 0
197 76 -108 0
-197 76 108 0
197 -76 108 0
-197 -76 -108 0
76 -198 0
197 -198 0
-76 -197 198 0
44 -199 0
12 -199 0
-44 -12 199 0
-198 141 0
-199 141 0
198 199 -141 0
13 45 -200 0
-13 45 200 0
13 -45 200 0
-13 -45 -200 0
200 77 -109 0
-200 77 109 0
200 -77 109 0
-200 -77 -109 0
77 -201 0
200 -201 0
-77 -200 201 0
45 -202 0
13 -202 0
-45 -13 202 0
-201 142 0
-202 142 0
201 202 -142 0
14 46 -203 0
-14 46 203 0
14 -46 203 0
-14 -46 -203 0
203 78 -110 0
-203 78 110 0
203 -78 110 0
-203 -78 -110 0
78 -204 0
203 -204 0
-78 -203 204 0
46 -205 0
14 -205 0
-46 -14 205 0
-204 143 0
-205 143 0
204 205 -143 0
15 47 -206 0
-15 47 206 0
15 -47 206 0
-15 -47 -206 0
206 79 -111 0
-206 79 111 0
206 -79 111 0
-206 -79 -111 0
79 -207 0
206 -207 0
-79 -206 207 0
47 -208 0
15 -208 0
-47 -15 208 0
-207 144 0
-208 144 0
207 208 -144 0
16 48 -209 0
-16 48 209 0
16 -48 209 0
-16 -48 -209 0
209 80 -112 0
-209 80 112 0
209 -80 112 0
-209 -80 -112 0
80 -210 0
209 -210 0
-80 -209 210 0
48 -211 0
16 -211 0
-48 -16 211 0
-210 145 0
-211 145 0
210 211 -145 0
17 49 -212 0
-17 49 212 0
17 -49 212 0
-17 -49 -212 0
212 81 -113 0
-212 81 113 0
212 -81 113 0
-212 -81 -113 0
81 -213 0
212 -213 0
-81 -212 213 0
49 -214 0
17 -214 0
-49 -17 214 0
-213 146 0
-214 146 0
213 214 -146 0
18 50 -215 0
-18 50 215 0
18 -50 215 0
-18 -50 -215 0
215 82 -114 0
-215 82 114 0
215 -82 114 0
-215 -82 -114 0
82 -216 0
215 -216 0
-82 -215 216 0
50 -217 0
18 -217 0
-50 -18 217 0
-216 147 0
-217 147 0
216 217 -147 0
19 51 -218 0
-19 51 218 0
19 -51 218 0
-19 -51 -218 0
218 83 -115 0
-218 83 115 0
218 -83 115 0
-218 -83 -115 0
83 -219 0
218 -219 0
-83 -218 219 0
51 -220 0
19 -220 0
-51 -19 220 0
-219 148 0
-220 148 0
219 220 -148 0
20 52 -221 0
-20 52 221 0
20 -52 221 0
-20 -52 -221 0
221 84 -116 0
-221 84 116 0
221 -84 116 0
-221 -84 -116 0
84 -222 0
221 -222 0
-84 -221 222 0
52 -223 0
20 -223 0
-52 -20 223 0
-222 149 0
-223 149 0
222 223 -149 0
21 53 -224 0
-21 53 224 0
21 -53 224 0
-21 -53 -224 0
224 85 -117 0
-224 85 117 0
224 -85 117 0
-224 -85 -117 0
85 -225 0
224 -225 0
-85 -224 225 0
53 -226 0
21 -226 0
-53 -21 226 0
-225 150 0
-226 150 0
225 226 -150 0
22 54 -227 0
-22 54 227 0
22 -54 227 0
-22 -54 -227 0
227 86 -118 0
-227 86 118 0
227 -86 118 0
-227 -86 -118 0
86 -228 0
227 -228 0
-86 -227 228 0
54 -229 0
22 -229 0
-54 -22 229 0
-228 151 0
-229 151 0
228 229 -151 0
23 55 -230 0
-23 55 230 0
23 -55 230 0
-23 -55 -230 0
230 87 -119 0
-230 87 119 0
230 -87 119 0
-230 -87 -119 0
87 -231 0
230 -231 0
-87 -230 231 0
55 -232 0
23 -232 0
-55 -23 232 0
-231 152 0
-232 152 0
231 232 -152 0
24 56 -233 0
-24 56 233 0
24 -56 233 0
-24 -56 -233 0
233 88 -120 0
-233 88 120 0
233 -88 120 0
-233 -88 -120 0
88 -234 0
233 -234 0
-88 -233 234 0
56 -235 0
24 -235 0
-56 -24 235 0
-234 153 0
-235 153 0
234 235 -153 0
25 57 -236 0
-25 57 236 0
25 -57 236 0
-25 -57 -236 0
236 89 -121 0
-236 89 121 0
236 -89 121 0
-236 -89 -121 0
89 -237 0
236 -237 0
-89 -236 237 0
57 -238 0
25 -238 0
-57 -25 238 0
-237 154 0
-238 154 0
237 238 -154 0
26 58 -239 0
-26 58 239 0
26 -58 239 0
-26 -58 -239 0
239 90 -122 0
-239 90 122 0
239 -90 122 0
-239 -90 -122 0
90 -240 0
239 -240 0
-90 -239 240 0
58 -241 0
26 -241 0
-58 -26 241 0
-240 155 0
-241 155 0
240 241 -155 0
27 59 -242 0
-27 59 242 0
27 -59 242 0
-27 -59 -242 0
242 91 -123 0
-242 91 123 0
242 -91 123 0
-242 -91 -123 0
91 -243 0
242 -243 0
-91 -242 243 0
59 -244 0
27 -244 0
-59 -27 244 0
-243 156 0
-244 156 0
243 244 -156 0
28 60 -245 0
-28 60 245 0
28 -60 245 0
-28 -60 -245 0
245 92 -124 0
-245 92 124 0
245 -92 124 0
-245 -92 -124 0
92 -246 0
245 -246 0
-92 -245 246 0
60 -247 0
28 -247 0
-60 -28 247 0
-246 157 0
-247 157 0
246 247 -157 0
29 61 -248 0
-29 61 248 0
29 -61 248 0
-29 -61 -248 0
248 93 -125 0
-248 93 125 0
248 -93 125 0
-248 -93 -125 0
93 -249 0
248 -249 0
-93 -248 249 0
61 -250 0
29 -250 0
-61 -29 250 0
-249 158 0
-250 158 0
249 250 -158 0
30 62 -251 0
-30 62 251 0
30 -62 251 0
-30 -62 -251 0
251 94 -126 0
-251 94 126 0
251 -94 126 0
-251 -94 -126 0
94 -252 0
251 -252 0
-94 -251 252 0
62 -253 0
30 -253 0
-62 -30 253 0
-252 159 0
-253 159 0
252 253 -159 0
31 63 -254 0
-31 63 254 0
31 -63 254 0
-31 -63 -254 0
254 95 -127 0
-254 95 127 0
254 -95 127 0
-254 -95 -127 0
95 -255 0
254 -255 0
-95 -254 255 0
63 -256 0
31 -256 0
-63 -31 256 0
-255 160 0
-256 160 0
255 256 -160 0
32 64 -257 0
-32 64 257 0
32 -64 257 0
-32 -64 -257 0
257 96 -128 0
-257 96 128 0
257 -96 128 0
-257 -96 -128 0
96 -258 0
257 -258 0
-96 -257 258 0
64 -259 0
32 -259 0
-64 -32 259 0
-258 161 0
-259 161 0
258 259 -161 0
